233546
232210
228932
227025
227025
227025
227025
227025
222723
222723
220380
220380
215575
215575
214926
214926
214774
214774
214515
213233
213233
211567
211567
209702
208766
208766
208766
208478
208478
208478
205361
205326
205326
205326
205326
204691
203626
203626
203626
202814
202814
202379
201925
201478
200336
200336
197739
197739
197739
197739
197739
197739
197445
197385
196479
196479
196479
195727
193733
193733
193733
193733
193733
191985
191985
191985
191985
191985
191985
188289
188289
188289
188289
188289
188289
188289
188289
188289
187783
187219
187219
185869
185869
185869
185869
185869
185869
185869
185869
185869
185869
185869
185512
185161
185161
184258
184258
183670
182875
182875
